benchmarks/VRPTW/TSPTW/solution/n60w80.003.txt.solution
1 42 53 47 48 41 31 8 15 20 39 33 59 11 9 28 44 18 26 34 51 3 52 23 14 6 60 57 38 12 45 4 13 36 56 35 5 27 30 50 19 2 21 25 24 22 58 55 49 29 32 40 46 7 10 37 43 54 61 17 16 
550
